125
[25,28,30,31,32,34,35,36,37,38,41,42,43,44,45,46,47,48,49,50,51,52,53,54,55,56,57,58,60,61,62,63,65,66,67,69,70,71,72,73,74,75,76,78,79,80,81,82,83,84,85,86,87]
[2,3,3,2,2,1,1,3,1,1,2,1,1,2,2,2,2,2,1,3,4,4,2,2,3,2,3,1,1,3,1,2,1,1,2,3,1,3,1,3,1,1,3,1,1,1,2,3,1,3,1,1,1]
